RT is False
Default write of storage_offers_DA.csv just to have a file (but constraint should be inactive)
Reading model...
...model read.
creating competitive generators file...
...competitive generators recorded.
Loading data...
.. day-ahead data with real-time VRE data read.
Compiling instance...
...instance created.
Creating Offer Mitigation (model will solve as dispatch if TRUE)...
NOTE: storage offers will not be mitigated
...storage offer mitigation file created
Converting model to MPEC...
...converted
NOTE: initial MIP solve with only storage competitive to get feasible solution
Solving...

Welcome to IBM(R) ILOG(R) CPLEX(R) Interactive Optimizer 12.9.0.0
  with Simplex, Mixed Integer & Barrier Optimizers
5725-A06 5725-A29 5724-Y48 5724-Y49 5724-Y54 5724-Y55 5655-Y21
Copyright IBM Corp. 1988, 2019.  All Rights Reserved.

Type 'help' for a list of available commands.
Type 'help' followed by a command name for more
information on commands.

CPLEX> Logfile 'cplex.log' closed.
Logfile 'C:\Users\llavin\Desktop\test826\logs\tmpo1ooo49v.cplex.log' open.
CPLEX> New value for parallel optimization mode: -1
CPLEX> New value for emphasis for MIP optimization: 1
CPLEX> New value for mixed integer optimality gap tolerance: 0.01
CPLEX> New value for integrality tolerance: 1e-12
CPLEX> New value for deterministic time limit in ticks: 75000
CPLEX> Problem 'C:\Users\llavin\Desktop\test826\logs\tmp9jkk9551.pyomo.lp' read.
Read time = 0.23 sec. (13.92 ticks)
CPLEX> Problem name         : C:\Users\llavin\Desktop\test826\logs\tmp9jkk9551.pyomo.lp
Objective sense      : Maximize
Variables            :   53809  [Nneg: 1,  Box: 22004,  Free: 4464,
                                 Binary: 27340]
Objective nonzeros   :    9033
Linear constraints   :  123253  [Less: 41346,  Greater: 59096,  Equal: 22811]
  Nonzeros           :  293221
  RHS nonzeros       :   67495

Variables            : Min LB: -5000.000        Max UB: 1000000.       
Objective nonzeros   : Min   : 0.04166667       Max   : 2500.000       
Linear constraints   :
  Nonzeros           : Min   : 0.04166667       Max   : 1000000.       
  RHS nonzeros       : Min   : 0.04166667       Max   : 1000000.       
CPLEX> CPXPARAM_Parallel                                -1
CPXPARAM_Emphasis_MIP                            1
CPXPARAM_DetTimeLimit                            75000
CPXPARAM_MIP_Tolerances_MIPGap                   0.01
CPXPARAM_MIP_Tolerances_Integrality              9.9999999999999998e-13
Tried aggregator 4 times.
MIP Presolve eliminated 88652 rows and 18959 columns.
MIP Presolve added 3380 rows and 0 columns.
MIP Presolve modified 24861 coefficients.
Aggregator did 12985 substitutions.
Reduced MIP has 24996 rows, 21313 columns, and 71914 nonzeros.
Reduced MIP has 8425 binaries, 0 generals, 0 SOSs, and 0 indicators.
Presolve time = 0.31 sec. (192.43 ticks)
Probing fixed 373 vars, tightened 3792 bounds.
Probing time = 0.06 sec. (19.11 ticks)
Tried aggregator 2 times.
MIP Presolve eliminated 843 rows and 748 columns.
MIP Presolve modified 3044 coefficients.
Aggregator did 34 substitutions.
Reduced MIP has 24119 rows, 20531 columns, and 69378 nonzeros.
Reduced MIP has 8051 binaries, 0 generals, 0 SOSs, and 0 indicators.
Presolve time = 0.09 sec. (87.99 ticks)
Probing fixed 0 vars, tightened 237 bounds.
Probing time = 0.14 sec. (22.71 ticks)
Clique table members: 44754.
MIP emphasis: integer feasibility.
MIP search method: dynamic search.
Parallel mode: opportunistic, using up to 32 threads.
Root relaxation solution time = 0.41 sec. (601.27 ticks)

        Nodes                                         Cuts/
   Node  Left     Objective  IInf  Best Integer    Best Bound    ItCnt     Gap

      0     0        0.0000    65                      0.0000     5172         
*     0+    0                            0.0000        0.0000             0.00%
      0     0        cutoff              0.0000        0.0000     5172    0.00%
Elapsed time = 1.63 sec. (1312.38 ticks, tree = 0.01 MB, solutions = 1)

Root node processing (before b&c):
  Real time             =    1.64 sec. (1314.33 ticks)
Parallel b&c, 32 threads:
  Real time             =    0.00 sec. (0.00 ticks)
  Sync time (average)   =    0.00 sec.
  Wait time (average)   =    0.00 sec.
                          ------------
Total (root+branch&cut) =    1.64 sec. (1314.33 ticks)

Solution pool: 1 solution saved.

MIP - Integer optimal solution:  Objective =  1.1787051335e-09
Solution time =    1.66 sec.  Iterations = 5172  Nodes = 0
Deterministic time = 1314.49 ticks  (793.77 ticks/sec)

CPLEX> Incumbent solution written to file 'C:\Users\llavin\Desktop\test826\logs\tmp2r1sdpnm.cplex.sol'.
CPLEX> NOTE: no warmstart specified for MIP iteration, default behavior is true
NOTE: resolving with all competitive generators using storage-only solution to warmstart
Solving...

Welcome to IBM(R) ILOG(R) CPLEX(R) Interactive Optimizer 12.9.0.0
  with Simplex, Mixed Integer & Barrier Optimizers
5725-A06 5725-A29 5724-Y48 5724-Y49 5724-Y54 5724-Y55 5655-Y21
Copyright IBM Corp. 1988, 2019.  All Rights Reserved.

Type 'help' for a list of available commands.
Type 'help' followed by a command name for more
information on commands.

CPLEX> Logfile 'cplex.log' closed.
Logfile 'C:\Users\llavin\Desktop\test826\logs\tmpzjkmigia.cplex.log' open.
CPLEX> New value for parallel optimization mode: -1
CPLEX> New value for emphasis for MIP optimization: 1
CPLEX> New value for mixed integer optimality gap tolerance: 0.01
CPLEX> New value for integrality tolerance: 1e-12
CPLEX> New value for deterministic time limit in ticks: 75000
CPLEX> Problem 'C:\Users\llavin\Desktop\test826\logs\tmp48uo9b4f.pyomo.lp' read.
Read time = 0.23 sec. (13.94 ticks)
CPLEX> MIP start file 'C:\Users\llavin\Desktop\test826\logs\tmphwp820wd.cplex.mst' read.
CPLEX> Problem name         : C:\Users\llavin\Desktop\test826\logs\tmp48uo9b4f.pyomo.lp
Objective sense      : Maximize
Variables            :   54529  [Nneg: 1,  Box: 22724,  Free: 4464,
                                 Binary: 27340]
Objective nonzeros   :    9729
Linear constraints   :  123253  [Less: 41346,  Greater: 59096,  Equal: 22811]
  Nonzeros           :  293221
  RHS nonzeros       :   67495

Variables            : Min LB: -5000.000        Max UB: 1000000.       
Objective nonzeros   : Min   : 0.04166667       Max   : 2500.000       
Linear constraints   :
  Nonzeros           : Min   : 0.04166667       Max   : 1000000.       
  RHS nonzeros       : Min   : 0.04166667       Max   : 1000000.       
CPLEX> CPXPARAM_Parallel                                -1
CPXPARAM_Emphasis_MIP                            1
CPXPARAM_DetTimeLimit                            75000
CPXPARAM_MIP_Tolerances_MIPGap                   0.01
CPXPARAM_MIP_Tolerances_Integrality              9.9999999999999998e-13
Warning:  No solution found from 1 MIP starts.
Retaining values of one MIP start for possible repair.
Tried aggregator 4 times.
MIP Presolve eliminated 88652 rows and 19679 columns.
MIP Presolve added 3380 rows and 0 columns.
MIP Presolve modified 24861 coefficients.
Aggregator did 12985 substitutions.
Reduced MIP has 24996 rows, 21313 columns, and 71914 nonzeros.
Reduced MIP has 8425 binaries, 0 generals, 0 SOSs, and 0 indicators.
Presolve time = 0.31 sec. (192.84 ticks)
Probing fixed 373 vars, tightened 3792 bounds.
Probing time = 0.08 sec. (19.11 ticks)
Tried aggregator 2 times.
MIP Presolve eliminated 843 rows and 748 columns.
MIP Presolve modified 3044 coefficients.
Aggregator did 34 substitutions.
Reduced MIP has 24119 rows, 20531 columns, and 69378 nonzeros.
Reduced MIP has 8051 binaries, 0 generals, 0 SOSs, and 0 indicators.
Presolve time = 0.11 sec. (87.99 ticks)
Probing fixed 0 vars, tightened 237 bounds.
Probing time = 0.14 sec. (22.71 ticks)
Clique table members: 44754.
MIP emphasis: integer feasibility.
MIP search method: dynamic search.
Parallel mode: opportunistic, using up to 32 threads.
Root relaxation solution time = 0.49 sec. (665.28 ticks)

        Nodes                                         Cuts/
   Node  Left     Objective  IInf  Best Integer    Best Bound    ItCnt     Gap

      0     0   126623.1856   256                 126623.1856     5932         
      0     0   123034.1900   206                   Cuts: 112     6137         
      0     0   122141.6104   197                   Cuts: 124     6240         
      0     0   121971.6021   199                     Cuts: 3     6246         
Repair heuristic found nothing.
      0    18   110829.9840   177                    Cuts: 13     6490         
Elapsed time = 4.27 sec. (1855.41 ticks, tree = 0.02 MB, solutions = 0)
    544   303    95992.9234   137                 117896.2057    10189         
   1083   710    44104.8159   101                 117896.2057    18419         
   1697   964    infeasible                       117896.2057    24326         
   2364  1286    infeasible                       117896.2057    34289         
   3046  1569    14383.3766    75                 117615.5719    48880         
   3793  1641    11531.1239    55                 117615.5719    51946         
*  3870+ 1641                            0.0000   117615.5719              --- 
   4497  1646    15622.9194    65        0.0000   117615.5719    69960     --- 
   5106  1900    28406.9421    82        0.0000   117112.7606    84062     --- 
   7623  2931    29646.3094    81        0.0000   110807.8429   121086     --- 
Elapsed time = 20.19 sec. (4748.30 ticks, tree = 20.44 MB, solutions = 1)
   8351  3631        cutoff              0.0000    36569.6790   173912     --- 

Cover cuts applied:  10
Implied bound cuts applied:  28
Flow cuts applied:  103
Gomory fractional cuts applied:  4

Root node processing (before b&c):
  Real time             =    2.62 sec. (1812.97 ticks)
Parallel b&c, 32 threads:
  Real time             =   25.74 sec. (6148.83 ticks)
  Sync time (average)   =    2.59 sec.
  Wait time (average)   =    0.24 sec.
                          ------------
Total (root+branch&cut) =   28.36 sec. (7961.79 ticks)

Solution pool: 1 solution saved.

MIP - Integer optimal solution:  Objective =  3.0195224099e-10
Solution time =   28.36 sec.  Iterations = 180271  Nodes = 9008
Deterministic time = 7961.95 ticks  (280.76 ticks/sec)

CPLEX> Incumbent solution written to file 'C:\Users\llavin\Desktop\test826\logs\tmp7y149ots.cplex.sol'.
CPLEX> Exporting results... 
